max

obj:

+65.36 x0
+59.42 x1
+28.86 x2
+0.09 x3
+119.15 x5
+121.3 x6
+118.27 x7
+94.44 x8
-0.69 x12
+0.91 x14
+33.92 x15
+35.09 x16
+35.82 x17
+31.63 x18
+22.65 x19
+1.9 x20
-0.04 x21
-0.02 x22
-0.03 x23
-0.12 x24
-0.06 x25
+1.88 x26
+0.22 x27
+6.69 x28
-0.03 x29
-0.1 x30
-0.01 x31
-12.04 x32
-13.49 x33
+102.63 x34
+28.73 x35
+65.0 x36
+55.77 x37
+59.13 x38
+32.56 x39
+27.82 x40
+26.6 x41
+20.97 x42
+5.16 x43
+0.04 x44
-0.01 x45
-0.06 x46
+1.41 x47
-0.01 x48
+75.45 x49
+0.07 x50
+50.32 x51
+2.03 x52
+13.2 x53
+38.29 x54
+41.96 x55
+161.41 x56
+218.92 x57
+73.11 x58
+40.63 x59
-5.35 x60
+4.06 x61
-0.01 x62
-0.09 x63
-0.08 x64
-4.13 x65
-8.15 x66
-0.99 x67
+67.99 x68
-0.02 x69
+80.02 x70
+90.02 x71
+0.04 x72
-0.16 x73
+126.58 x74
+111.24 x75
+82.51 x76
+89.92 x77
+105.09 x78
+141.92 x79
+133.07 x80
+102.44 x81
+68.99 x82
+61.59 x83
+156.2 x84
+195.42 x85
+131.84 x86
+85.2 x87
+83.4 x88
+67.33 x89
+80.0 x90
+78.93 x91
-0.2 x92
+4.92 x93
+4.06 x94
+4.75 x95
+5.01 x96
+3.78 x97
+0.65 x98
+0.06 x101
+36.58 x102
+20.91 x103
+2.06 x104
+7.63 x105
+21.96 x106
+34.99 x107
+34.96 x108
+48.99 x109
+48.64 x110
+52.89 x111
+57.8 x112
+80.07 x113
+78.4 x114
+81.43 x115
+81.51 x116
+100.1 x117
+117.01 x118
+65.86 x119
+72.1 x120
+72.0 x121
+72.33 x122
+77.1 x123
+103.0 x124
+126.54 x125
+141.42 x126
+116.27 x127
+100.09 x128
+85.0 x129
+131.97 x130
+99.9 x131
+84.64 x132
+81.4 x133
+138.07 x134
+70.42 x135
+60.06 x136
+82.78 x137
+106.3 x138
+97.22 x139
+72.98 x140
+59.37 x141
+58.69 x142
+51.71 x143
+47.8 x144
+45.73 x145
+43.2 x146
+117.2 x147
+188.49 x148
+188.53 x149
+121.98 x150
+99.93 x151
+91.91 x152
+93.13 x153
+114.0 x154
+144.0 x155
+153.09 x156
+114.41 x157
+94.9 x158
+86.6 x159
+67.6 x160
+57.48 x161
+54.32 x162
+57.32 x163
+63.87 x164
+86.7 x165
+110.98 x166
+87.0 x167
+117.45 x168
+122.53 x169
+127.12 x170
+111.05 x171
+95.8 x172
+95.1 x173
+35.0 x174
+59.42 x175
+38.0 x176
+22.5 x177
+18.0 x178
+119.15 x179
+469.19 x180
+207.79 x181
+469.19 x182
+32.0 x184
+32.0 x185
+26.0 x186
+33.0 x187
+40.83 x188
+40.0 x189
+35.09 x190
+35.82 x191
+34.0 x192
+31.0 x193
+33.0 x194
+8.0 x195
+8.0 x196
+7.0 x197
-4.0 x198
+28.0 x199
+28.0 x200
+30.0 x201
+25.0 x202
+20.0 x203
+20.0 x204
+6.7 x205
-12.04 x206
+3.35 x207
+33.0 x208
+33.0 x209
+578.4 x210
+181.34 x211
+59.13 x212
+42.0 x213
+32.88 x214
+34.0 x215
+30.02 x216
+5.16 x217
+17.0 x218
+31.35 x219
+23.76 x220
+25.0 x221
+34.0 x222
+75.45 x223
+0.07 x224
+147.43 x225
+28.54 x226
+24.0 x227
+408.64 x228
+41.96 x229
+670.05 x230
+479.86 x231
+73.11 x232
+31.52 x233
-5.35 x234
+10.0 x235
-0.01 x236
+6.0 x237
+5.5 x238
+5.0 x239
+4.0 x240
+5.0 x241
+67.99 x242
-0.02 x243
+109.43 x244
+213.44 x245
+0.04 x246
-3.0 x247
+268.0 x248
+111.24 x249
+82.51 x250
+89.92 x251
+105.09 x252
+141.92 x253
+133.07 x254
+18.0 x255
+68.99 x256
+61.59 x257
+156.2 x258
+195.42 x259
+25.0 x260
+85.2 x261
+83.4 x262
+67.33 x263
+80.0 x264
+25.0 x265
-0.2 x266
+4.92 x267
+4.06 x268
+20.5 x269
+20.5 x270
-13.41 x271
-14.08 x272
-14.75 x273
-4.0 x274
-12.0 x275
+34.0 x276
+12.0 x277
-2.0 x278
-2.0 x279
+2.0 x280
+29.0 x281
+29.0 x282
+29.73 x283
+27.5 x284
+35.0 x285
+30.0 x286
+28.0 x287
+34.5 x288
+37.0 x289
+45.0 x290
+45.0 x291
+53.68 x292
+37.0 x293
+72.1 x294
+72.0 x295
+72.33 x296
+77.1 x297
+103.0 x298
+126.54 x299
+141.42 x300
+52.5 x301
+100.09 x302
+85.0 x303
+131.97 x304
+99.9 x305
+84.64 x306
+81.4 x307
+138.07 x308
+36.88 x309
+60.06 x310
+82.78 x311
+106.3 x312
+97.22 x313
+38.0 x314
+33.0 x315
+29.51 x316
+29.51 x317
+38.5 x318
+37.0 x319
+37.5 x320
+268.17 x321
+335.39 x322
+455.64 x323
+121.98 x324
+99.93 x325
+91.91 x326
+93.13 x327
+114.0 x328
+144.0 x329
+153.09 x330
+114.41 x331
+94.9 x332
+86.6 x333
+67.6 x334
+57.48 x335
+54.32 x336
+57.32 x337
+63.87 x338
+86.7 x339
+110.98 x340
+87.0 x341
+117.45 x342
+61.12 x343
+38.0 x344
+40.23 x345
+40.24 x346
+95.1 x347


s.t.

c0:
+1.0 x0
-1.0 x348
= 2.441999912261963
c1:
+1.0 x1
-1.0 x348
= 2.9769999980926514
c2:
-1.0 x348
+1.0 x2
= 3.7200000286102295
c3:
+1.0 x3
-1.0 x348
= 4.435999870300293
c4:
+1.0 x4
-1.0 x348
= 4.642000198364258
c5:
+1.0 x5
-1.0 x348
= 1.6779999732971191
c6:
-1.0 x348
+1.0 x6
= 1.6929999589920044
c7:
+1.0 x7
-1.0 x348
= 1.7309999465942383
c8:
+1.0 x8
-1.0 x348
= 1.7380000352859497
c9:
+1.0 x9
-1.0 x348
= 1.2380000352859497
c10:
+1.0 x10
-1.0 x348
= 1.2519999742507935
c11:
-1.0 x348
+1.0 x11
= 1.25600004196167
c12:
-1.0 x348
+1.0 x12
= 1.2309999465942383
c13:
-1.0 x348
+1.0 x13
= 1.194000005722046
c14:
-1.0 x348
+1.0 x14
= 1.1770000457763672
c15:
+1.0 x15
-1.0 x348
= 3.621000051498413
c16:
+1.0 x16
-1.0 x348
= 4.260000228881836
c17:
+1.0 x17
-1.0 x348
= 4.175000190734863
c18:
+1.0 x18
-1.0 x348
= 4.317999839782715
c19:
+1.0 x19
-1.0 x348
= 3.8350000381469727
c20:
-1.0 x348
+1.0 x20
= 3.365999937057495
c21:
-1.0 x348
+1.0 x21
= 1.600000023841858
c22:
-1.0 x348
+1.0 x22
= 2.119999885559082
c23:
-1.0 x348
+1.0 x23
= 2.569000005722046
c24:
-1.0 x348
+1.0 x24
= 2.8429999351501465
c25:
-1.0 x348
+1.0 x25
= 3.7320001125335693
c26:
-1.0 x348
+1.0 x26
= 4.120999813079834
c27:
+1.0 x27
-1.0 x348
= 4.548999786376953
c28:
-1.0 x348
+1.0 x28
= 5.013999938964844
c29:
+1.0 x29
-1.0 x348
= 6.247000217437744
c30:
+1.0 x30
-1.0 x348
= 6.061999797821045
c31:
+1.0 x31
-1.0 x348
= 4.310999870300293
c32:
+1.0 x32
-1.0 x348
= 4.389999866485596
c33:
+1.0 x33
-1.0 x348
= 4.248000144958496
c34:
-1.0 x348
+1.0 x34
= 0.574999988079071
c35:
-1.0 x348
+1.0 x35
= 3.4070000648498535
c36:
-1.0 x348
+1.0 x36
= 1.0199999809265137
c37:
+1.0 x37
-1.0 x348
= 0.8100000023841858
c38:
+1.0 x38
-1.0 x348
= 0.9470000267028809
c39:
+1.0 x39
-1.0 x348
= 3.382999897003174
c40:
+1.0 x40
-1.0 x348
= 5.11899995803833
c41:
-1.0 x348
+1.0 x41
= 5.052000045776367
c42:
+1.0 x42
-1.0 x348
= 4.860000133514404
c43:
-1.0 x348
+1.0 x43
= 4.559999942779541
c44:
-1.0 x348
+1.0 x44
= 4.11899995803833
c45:
-1.0 x348
+1.0 x45
= 3.489000082015991
c46:
-1.0 x348
+1.0 x46
= 1.6119999885559082
c47:
-1.0 x348
+1.0 x47
= 1.1619999408721924
c48:
+1.0 x48
-1.0 x348
= 0.8510000109672546
c49:
+1.0 x49
-1.0 x348
= 0.6800000071525574
c50:
+1.0 x50
-1.0 x348
= 3.055000066757202
c51:
+1.0 x51
-1.0 x348
= 1.0700000524520874
c52:
-1.0 x348
+1.0 x52
= 2.440000057220459
c53:
-1.0 x348
+1.0 x53
= 2.3980000019073486
c54:
-1.0 x348
+1.0 x54
= 0.5329999923706055
c55:
+1.0 x55
-1.0 x348
= 0.2980000078678131
c56:
+1.0 x56
-1.0 x348
= 0.4300000071525574
c57:
+1.0 x57
-1.0 x348
= 0.453000009059906
c58:
+1.0 x58
-1.0 x348
= 2.2699999809265137
c59:
+1.0 x59
-1.0 x348
= 0.574999988079071
c60:
-1.0 x348
+1.0 x60
= 3.625999927520752
c61:
-1.0 x348
+1.0 x61
= 4.401000022888184
c62:
-1.0 x348
+1.0 x62
= 5.045000076293945
c63:
+1.0 x63
-1.0 x348
= 5.538000106811523
c64:
+1.0 x64
-1.0 x348
= 5.801000118255615
c65:
+1.0 x65
-1.0 x348
= 6.7129998207092285
c66:
+1.0 x66
-1.0 x348
= 2.9600000381469727
c67:
+1.0 x67
-1.0 x348
= 3.1429998874664307
c68:
+1.0 x68
-1.0 x348
= 3.246999979019165
c69:
+1.0 x69
-1.0 x348
= 1.715999960899353
c70:
+1.0 x70
-1.0 x348
= 0.34599998593330383
c71:
+1.0 x71
-1.0 x348
= 2.819000005722046
c72:
-1.0 x348
+1.0 x72
= 4.079999923706055
c73:
+1.0 x73
-1.0 x348
= 4.98199987411499
c74:
+1.0 x74
-1.0 x348
= 1.2120000123977661
c75:
-1.0 x348
+1.0 x75
= 0.675000011920929
c76:
+1.0 x76
-1.0 x348
= 0.859000027179718
c77:
+1.0 x77
-1.0 x348
= 0.8920000195503235
c78:
-1.0 x348
+1.0 x78
= 0.8360000252723694
c79:
+1.0 x79
-1.0 x348
= 0.699999988079071
c80:
+1.0 x80
-1.0 x348
= 0.5070000290870667
c81:
-1.0 x348
+1.0 x81
= 0.29100000858306885
c82:
+1.0 x82
-1.0 x348
= 0.7409999966621399
c83:
+1.0 x83
-1.0 x348
= 0.6209999918937683
c84:
+1.0 x84
-1.0 x348
= 1.649999976158142
c85:
+1.0 x85
-1.0 x348
= 1.2489999532699585
c86:
+1.0 x86
-1.0 x348
= 0.9789999723434448
c87:
+1.0 x87
-1.0 x348
= 1.6469999551773071
c88:
+1.0 x88
-1.0 x348
= 1.9550000429153442
c89:
-1.0 x348
+1.0 x89
= 2.1549999713897705
c90:
+1.0 x90
-1.0 x348
= 0.6899999976158142
c91:
+1.0 x91
-1.0 x348
= 0.703000009059906
c92:
+1.0 x92
-1.0 x348
= 0.9110000133514404
c93:
+1.0 x93
-1.0 x348
= 0.7279999852180481
c94:
+1.0 x94
-1.0 x348
= 0.6710000038146973
c95:
-1.0 x348
+1.0 x95
= 0.671999990940094
c96:
+1.0 x96
-1.0 x348
= 0.7239999771118164
c97:
-1.0 x348
+1.0 x97
= 4.479000091552734
c98:
-1.0 x348
+1.0 x98
= 4.585999965667725
c99:
-1.0 x348
+1.0 x99
= 4.63100004196167
c100:
-1.0 x348
+1.0 x100
= 4.5269999504089355
c101:
+1.0 x101
-1.0 x348
= 4.379000186920166
c102:
-1.0 x348
+1.0 x102
= 4.156000137329102
c103:
-1.0 x348
+1.0 x103
= 4.716000080108643
c104:
-1.0 x348
+1.0 x104
= 5.453000068664551
c105:
-1.0 x348
+1.0 x105
= 5.7129998207092285
c106:
-1.0 x348
+1.0 x106
= 5.775000095367432
c107:
-1.0 x348
+1.0 x107
= 6.130000114440918
c108:
+1.0 x108
-1.0 x348
= 6.014999866485596
c109:
+1.0 x109
-1.0 x348
= 3.131999969482422
c110:
+1.0 x110
-1.0 x348
= 3.0450000762939453
c111:
+1.0 x111
-1.0 x348
= 2.359999895095825
c112:
-1.0 x348
+1.0 x112
= 2.3489999771118164
c113:
-1.0 x348
+1.0 x113
= 2.3359999656677246
c114:
-1.0 x348
+1.0 x114
= 2.257999897003174
c115:
+1.0 x115
-1.0 x348
= 2.23799991607666
c116:
-1.0 x348
+1.0 x116
= 2.1589999198913574
c117:
+1.0 x117
-1.0 x348
= 2.003999948501587
c118:
+1.0 x118
-1.0 x348
= 1.8569999933242798
c119:
+1.0 x119
-1.0 x348
= 1.9589999914169312
c120:
+1.0 x120
-1.0 x348
= 0.3540000021457672
c121:
-1.0 x348
+1.0 x121
= 0.3089999854564667
c122:
-1.0 x348
+1.0 x122
= 0.2770000100135803
c123:
+1.0 x123
-1.0 x348
= 0.25
c124:
+1.0 x124
-1.0 x348
= 0.2070000022649765
c125:
-1.0 x348
+1.0 x125
= 0.14800000190734863
c126:
+1.0 x126
-1.0 x348
= 0.09700000286102295
c127:
+1.0 x127
-1.0 x348
= 0.03799999877810478
c128:
-1.0 x348
+1.0 x128
= -0.0
c129:
-1.0 x348
+1.0 x129
= -0.0
c130:
+1.0 x130
-1.0 x348
= 0.05900000035762787
c131:
+1.0 x131
-1.0 x348
= 0.20600000023841858
c132:
-1.0 x348
+1.0 x132
= 0.20399999618530273
c133:
-1.0 x348
+1.0 x133
= 0.1860000044107437
c134:
+1.0 x134
-1.0 x348
= 0.34299999475479126
c135:
-1.0 x348
+1.0 x135
= 0.9340000152587891
c136:
-1.0 x348
+1.0 x136
= 0.781000018119812
c137:
-1.0 x348
+1.0 x137
= 1.3420000076293945
c138:
-1.0 x348
+1.0 x138
= 1.5529999732971191
c139:
-1.0 x348
+1.0 x139
= 1.7899999618530273
c140:
-1.0 x348
+1.0 x140
= 2.0190000534057617
c141:
-1.0 x348
+1.0 x141
= 2.2109999656677246
c142:
+1.0 x142
-1.0 x348
= 2.3350000381469727
c143:
+1.0 x143
-1.0 x348
= 2.4760000705718994
c144:
+1.0 x144
-1.0 x348
= 4.372000217437744
c145:
+1.0 x145
-1.0 x348
= 4.261000156402588
c146:
+1.0 x146
-1.0 x348
= 3.9779999256134033
c147:
-1.0 x348
+1.0 x147
= 2.2660000324249268
c148:
+1.0 x148
-1.0 x348
= 2.1089999675750732
c149:
+1.0 x149
-1.0 x348
= 2.0450000762939453
c150:
+1.0 x150
-1.0 x348
= 2.0
c151:
+1.0 x151
-1.0 x348
= 1.9490000009536743
c152:
+1.0 x152
-1.0 x348
= 1.8519999980926514
c153:
-1.0 x348
+1.0 x153
= 1.9910000562667847
c154:
-1.0 x348
+1.0 x154
= 1.906999945640564
c155:
-1.0 x348
+1.0 x155
= 1.8910000324249268
c156:
+1.0 x156
-1.0 x348
= 1.9270000457763672
c157:
-1.0 x348
+1.0 x157
= 1.9639999866485596
c158:
-1.0 x348
+1.0 x158
= 2.000999927520752
c159:
-1.0 x348
+1.0 x159
= 1.9989999532699585
c160:
-1.0 x348
+1.0 x160
= 1.8730000257492065
c161:
+1.0 x161
-1.0 x348
= 0.9729999899864197
c162:
-1.0 x348
+1.0 x162
= 0.9559999704360962
c163:
-1.0 x348
+1.0 x163
= 0.9449999928474426
c164:
-1.0 x348
+1.0 x164
= 0.9700000286102295
c165:
-1.0 x348
+1.0 x165
= 1.0169999599456787
c166:
+1.0 x166
-1.0 x348
= 1.0479999780654907
c167:
-1.0 x348
+1.0 x167
= 1.0360000133514404
c168:
+1.0 x168
-1.0 x348
= 1.1339999437332153
c169:
+1.0 x169
-1.0 x348
= 1.1089999675750732
c170:
+1.0 x170
-1.0 x348
= 1.0609999895095825
c171:
+1.0 x171
-1.0 x348
= 0.9959999918937683
c172:
+1.0 x172
-1.0 x348
= 0.9399999976158142
c173:
+1.0 x173
-1.0 x348
= 0.8429999947547913
c174:
+1.0 x348
<= -0.0


bounds

+0.0 <=  x0 <= +7.2
+0.0 <=  x1 <= +7.2
+0.0 <=  x2 <= +7.2
+0.0 <=  x3 <= +7.2
+0.0 <=  x4 <= +7.2
+0.0 <=  x5 <= +7.2
+0.0 <=  x6 <= +7.2
+0.0 <=  x7 <= +7.2
+0.0 <=  x8 <= +7.2
+0.0 <=  x9 <= +7.2
+0.0 <=  x10 <= +7.2
+0.0 <=  x11 <= +7.2
+0.0 <=  x12 <= +7.2
+0.0 <=  x13 <= +7.2
+0.0 <=  x14 <= +7.2
+0.0 <=  x15 <= +7.2
+0.0 <=  x16 <= +7.2
+0.0 <=  x17 <= +7.2
+0.0 <=  x18 <= +7.2
+0.0 <=  x19 <= +7.2
+0.0 <=  x20 <= +7.2
+0.0 <=  x21 <= +7.2
+0.0 <=  x22 <= +7.2
+0.0 <=  x23 <= +7.2
+0.0 <=  x24 <= +7.2
+0.0 <=  x25 <= +7.2
+0.0 <=  x26 <= +7.2
+0.0 <=  x27 <= +7.2
+0.0 <=  x28 <= +7.2
+0.0 <=  x29 <= +7.2
+0.0 <=  x30 <= +7.2
+0.0 <=  x31 <= +7.2
+0.0 <=  x32 <= +7.2
+0.0 <=  x33 <= +7.2
+0.0 <=  x34 <= +7.2
+0.0 <=  x35 <= +7.2
+0.0 <=  x36 <= +7.2
+0.0 <=  x37 <= +7.2
+0.0 <=  x38 <= +7.2
+0.0 <=  x39 <= +7.2
+0.0 <=  x40 <= +7.2
+0.0 <=  x41 <= +7.2
+0.0 <=  x42 <= +7.2
+0.0 <=  x43 <= +7.2
+0.0 <=  x44 <= +7.2
+0.0 <=  x45 <= +7.2
+0.0 <=  x46 <= +7.2
+0.0 <=  x47 <= +7.2
+0.0 <=  x48 <= +7.2
+0.0 <=  x49 <= +7.2
+0.0 <=  x50 <= +7.2
+0.0 <=  x51 <= +7.2
+0.0 <=  x52 <= +7.2
+0.0 <=  x53 <= +7.2
+0.0 <=  x54 <= +7.2
+0.0 <=  x55 <= +7.2
+0.0 <=  x56 <= +7.2
+0.0 <=  x57 <= +7.2
+0.0 <=  x58 <= +7.2
+0.0 <=  x59 <= +7.2
+0.0 <=  x60 <= +7.2
+0.0 <=  x61 <= +7.2
+0.0 <=  x62 <= +7.2
+0.0 <=  x63 <= +7.2
+0.0 <=  x64 <= +7.2
+0.0 <=  x65 <= +7.2
+0.0 <=  x66 <= +7.2
+0.0 <=  x67 <= +7.2
+0.0 <=  x68 <= +7.2
+0.0 <=  x69 <= +7.2
+0.0 <=  x70 <= +7.2
+0.0 <=  x71 <= +7.2
+0.0 <=  x72 <= +7.2
+0.0 <=  x73 <= +7.2
+0.0 <=  x74 <= +7.2
+0.0 <=  x75 <= +7.2
+0.0 <=  x76 <= +7.2
+0.0 <=  x77 <= +7.2
+0.0 <=  x78 <= +7.2
+0.0 <=  x79 <= +7.2
+0.0 <=  x80 <= +7.2
+0.0 <=  x81 <= +7.2
+0.0 <=  x82 <= +7.2
+0.0 <=  x83 <= +7.2
+0.0 <=  x84 <= +7.2
+0.0 <=  x85 <= +7.2
+0.0 <=  x86 <= +7.2
+0.0 <=  x87 <= +7.2
+0.0 <=  x88 <= +7.2
+0.0 <=  x89 <= +7.2
+0.0 <=  x90 <= +7.2
+0.0 <=  x91 <= +7.2
+0.0 <=  x92 <= +7.2
+0.0 <=  x93 <= +7.2
+0.0 <=  x94 <= +7.2
+0.0 <=  x95 <= +7.2
+0.0 <=  x96 <= +7.2
+0.0 <=  x97 <= +7.2
+0.0 <=  x98 <= +7.2
+0.0 <=  x99 <= +7.2
+0.0 <=  x100 <= +7.2
+0.0 <=  x101 <= +7.2
+0.0 <=  x102 <= +7.2
+0.0 <=  x103 <= +7.2
+0.0 <=  x104 <= +7.2
+0.0 <=  x105 <= +7.2
+0.0 <=  x106 <= +7.2
+0.0 <=  x107 <= +7.2
+0.0 <=  x108 <= +7.2
+0.0 <=  x109 <= +7.2
+0.0 <=  x110 <= +7.2
+0.0 <=  x111 <= +7.2
+0.0 <=  x112 <= +7.2
+0.0 <=  x113 <= +7.2
+0.0 <=  x114 <= +7.2
+0.0 <=  x115 <= +7.2
+0.0 <=  x116 <= +7.2
+0.0 <=  x117 <= +7.2
+0.0 <=  x118 <= +7.2
+0.0 <=  x119 <= +7.2
+0.0 <=  x120 <= +7.2
+0.0 <=  x121 <= +7.2
+0.0 <=  x122 <= +7.2
+0.0 <=  x123 <= +7.2
+0.0 <=  x124 <= +7.2
+0.0 <=  x125 <= +7.2
+0.0 <=  x126 <= +7.2
+0.0 <=  x127 <= +7.2
+0.0 <=  x128 <= +7.2
+0.0 <=  x129 <= +7.2
+0.0 <=  x130 <= +7.2
+0.0 <=  x131 <= +7.2
+0.0 <=  x132 <= +7.2
+0.0 <=  x133 <= +7.2
+0.0 <=  x134 <= +7.2
+0.0 <=  x135 <= +7.2
+0.0 <=  x136 <= +7.2
+0.0 <=  x137 <= +7.2
+0.0 <=  x138 <= +7.2
+0.0 <=  x139 <= +7.2
+0.0 <=  x140 <= +7.2
+0.0 <=  x141 <= +7.2
+0.0 <=  x142 <= +7.2
+0.0 <=  x143 <= +7.2
+0.0 <=  x144 <= +7.2
+0.0 <=  x145 <= +7.2
+0.0 <=  x146 <= +7.2
+0.0 <=  x147 <= +7.2
+0.0 <=  x148 <= +7.2
+0.0 <=  x149 <= +7.2
+0.0 <=  x150 <= +7.2
+0.0 <=  x151 <= +7.2
+0.0 <=  x152 <= +7.2
+0.0 <=  x153 <= +7.2
+0.0 <=  x154 <= +7.2
+0.0 <=  x155 <= +7.2
+0.0 <=  x156 <= +7.2
+0.0 <=  x157 <= +7.2
+0.0 <=  x158 <= +7.2
+0.0 <=  x159 <= +7.2
+0.0 <=  x160 <= +7.2
+0.0 <=  x161 <= +7.2
+0.0 <=  x162 <= +7.2
+0.0 <=  x163 <= +7.2
+0.0 <=  x164 <= +7.2
+0.0 <=  x165 <= +7.2
+0.0 <=  x166 <= +7.2
+0.0 <=  x167 <= +7.2
+0.0 <=  x168 <= +7.2
+0.0 <=  x169 <= +7.2
+0.0 <=  x170 <= +7.2
+0.0 <=  x171 <= +7.2
+0.0 <=  x172 <= +7.2
+0.0 <=  x173 <= +7.2
-7.2 <=  x174 <= +7.2
-7.2 <=  x175 <= +7.2
-7.2 <=  x176 <= +7.2
-7.2 <=  x177 <= +7.2
-7.2 <=  x178 <= +7.2
-7.2 <=  x179 <= +7.2
-7.2 <=  x180 <= +7.2
-7.2 <=  x181 <= +7.2
-7.2 <=  x182 <= +7.2
-7.2 <=  x183 <= +7.2
-7.2 <=  x184 <= +7.2
-7.2 <=  x185 <= +7.2
-7.2 <=  x186 <= +7.2
-7.2 <=  x187 <= +7.2
-7.2 <=  x188 <= +7.2
-7.2 <=  x189 <= +7.2
-7.2 <=  x190 <= +7.2
-7.2 <=  x191 <= +7.2
-7.2 <=  x192 <= +7.2
-7.2 <=  x193 <= +7.2
-7.2 <=  x194 <= +7.2
-7.2 <=  x195 <= +7.2
-7.2 <=  x196 <= +7.2
-7.2 <=  x197 <= +7.2
-7.2 <=  x198 <= +7.2
-7.2 <=  x199 <= +7.2
-7.2 <=  x200 <= +7.2
-7.2 <=  x201 <= +7.2
-7.2 <=  x202 <= +7.2
-7.2 <=  x203 <= +7.2
-7.2 <=  x204 <= +7.2
-7.2 <=  x205 <= +7.2
-7.2 <=  x206 <= +7.2
-7.2 <=  x207 <= +7.2
-7.2 <=  x208 <= +7.2
-7.2 <=  x209 <= +7.2
-7.2 <=  x210 <= +7.2
-7.2 <=  x211 <= +7.2
-7.2 <=  x212 <= +7.2
-7.2 <=  x213 <= +7.2
-7.2 <=  x214 <= +7.2
-7.2 <=  x215 <= +7.2
-7.2 <=  x216 <= +7.2
-7.2 <=  x217 <= +7.2
-7.2 <=  x218 <= +7.2
-7.2 <=  x219 <= +7.2
-7.2 <=  x220 <= +7.2
-7.2 <=  x221 <= +7.2
-7.2 <=  x222 <= +7.2
-7.2 <=  x223 <= +7.2
-7.2 <=  x224 <= +7.2
-7.2 <=  x225 <= +7.2
-7.2 <=  x226 <= +7.2
-7.2 <=  x227 <= +7.2
-7.2 <=  x228 <= +7.2
-7.2 <=  x229 <= +7.2
-7.2 <=  x230 <= +7.2
-7.2 <=  x231 <= +7.2
-7.2 <=  x232 <= +7.2
-7.2 <=  x233 <= +7.2
-7.2 <=  x234 <= +7.2
-7.2 <=  x235 <= +7.2
-7.2 <=  x236 <= +7.2
-7.2 <=  x237 <= +7.2
-7.2 <=  x238 <= +7.2
-7.2 <=  x239 <= +7.2
-7.2 <=  x240 <= +7.2
-7.2 <=  x241 <= +7.2
-7.2 <=  x242 <= +7.2
-7.2 <=  x243 <= +7.2
-7.2 <=  x244 <= +7.2
-7.2 <=  x245 <= +7.2
-7.2 <=  x246 <= +7.2
-7.2 <=  x247 <= +7.2
-7.2 <=  x248 <= +7.2
-7.2 <=  x249 <= +7.2
-7.2 <=  x250 <= +7.2
-7.2 <=  x251 <= +7.2
-7.2 <=  x252 <= +7.2
-7.2 <=  x253 <= +7.2
-7.2 <=  x254 <= +7.2
-7.2 <=  x255 <= +7.2
-7.2 <=  x256 <= +7.2
-7.2 <=  x257 <= +7.2
-7.2 <=  x258 <= +7.2
-7.2 <=  x259 <= +7.2
-7.2 <=  x260 <= +7.2
-7.2 <=  x261 <= +7.2
-7.2 <=  x262 <= +7.2
-7.2 <=  x263 <= +7.2
-7.2 <=  x264 <= +7.2
-7.2 <=  x265 <= +7.2
-7.2 <=  x266 <= +7.2
-7.2 <=  x267 <= +7.2
-7.2 <=  x268 <= +7.2
-7.2 <=  x269 <= +7.2
-7.2 <=  x270 <= +7.2
-7.2 <=  x271 <= +7.2
-7.2 <=  x272 <= +7.2
-7.2 <=  x273 <= +7.2
-7.2 <=  x274 <= +7.2
-7.2 <=  x275 <= +7.2
-7.2 <=  x276 <= +7.2
-7.2 <=  x277 <= +7.2
-7.2 <=  x278 <= +7.2
-7.2 <=  x279 <= +7.2
-7.2 <=  x280 <= +7.2
-7.2 <=  x281 <= +7.2
-7.2 <=  x282 <= +7.2
-7.2 <=  x283 <= +7.2
-7.2 <=  x284 <= +7.2
-7.2 <=  x285 <= +7.2
-7.2 <=  x286 <= +7.2
-7.2 <=  x287 <= +7.2
-7.2 <=  x288 <= +7.2
-7.2 <=  x289 <= +7.2
-7.2 <=  x290 <= +7.2
-7.2 <=  x291 <= +7.2
-7.2 <=  x292 <= +7.2
-7.2 <=  x293 <= +7.2
-7.2 <=  x294 <= +7.2
-7.2 <=  x295 <= +7.2
-7.2 <=  x296 <= +7.2
-7.2 <=  x297 <= +7.2
-7.2 <=  x298 <= +7.2
-7.2 <=  x299 <= +7.2
-7.2 <=  x300 <= +7.2
-7.2 <=  x301 <= +7.2
-7.2 <=  x302 <= +7.2
-7.2 <=  x303 <= +7.2
-7.2 <=  x304 <= +7.2
-7.2 <=  x305 <= +7.2
-7.2 <=  x306 <= +7.2
-7.2 <=  x307 <= +7.2
-7.2 <=  x308 <= +7.2
-7.2 <=  x309 <= +7.2
-7.2 <=  x310 <= +7.2
-7.2 <=  x311 <= +7.2
-7.2 <=  x312 <= +7.2
-7.2 <=  x313 <= +7.2
-7.2 <=  x314 <= +7.2
-7.2 <=  x315 <= +7.2
-7.2 <=  x316 <= +7.2
-7.2 <=  x317 <= +7.2
-7.2 <=  x318 <= +7.2
-7.2 <=  x319 <= +7.2
-7.2 <=  x320 <= +7.2
-7.2 <=  x321 <= +7.2
-7.2 <=  x322 <= +7.2
-7.2 <=  x323 <= +7.2
-7.2 <=  x324 <= +7.2
-7.2 <=  x325 <= +7.2
-7.2 <=  x326 <= +7.2
-7.2 <=  x327 <= +7.2
-7.2 <=  x328 <= +7.2
-7.2 <=  x329 <= +7.2
-7.2 <=  x330 <= +7.2
-7.2 <=  x331 <= +7.2
-7.2 <=  x332 <= +7.2
-7.2 <=  x333 <= +7.2
-7.2 <=  x334 <= +7.2
-7.2 <=  x335 <= +7.2
-7.2 <=  x336 <= +7.2
-7.2 <=  x337 <= +7.2
-7.2 <=  x338 <= +7.2
-7.2 <=  x339 <= +7.2
-7.2 <=  x340 <= +7.2
-7.2 <=  x341 <= +7.2
-7.2 <=  x342 <= +7.2
-7.2 <=  x343 <= +7.2
-7.2 <=  x344 <= +7.2
-7.2 <=  x345 <= +7.2
-7.2 <=  x346 <= +7.2
-7.2 <=  x347 <= +7.2
-7.2 <=  x348 <= +7.2
end
